NAME          ClpDefau  FREE
ROWS
 N  OBJROW
 L  ZMUNI1_PCT
 L  ZMUNI2_PCT
 L  ZMUNI3_PCT
 L  ZMUNI4_PCT
 L  ZMUNI5_PCT
 L  ZMUNI6_PCT
 L  ZMUNI7_PCT
 L  ZMUNI8_PCT
 L  ZMUNI9_PCT
COLUMNS
    QMUNI1 OBJROW 1.          
    QMUNI1 ZMUNI1_PCT 52925.8728  
    QMUNI1 ZMUNI2_PCT 2117.7292   
    QMUNI1 ZMUNI3_PCT 5486.2976   
    QMUNI1 ZMUNI4_PCT 5618.6676   
    QMUNI1 ZMUNI5_PCT 675.0107    
    QMUNI1 ZMUNI6_PCT 785.4462    
    QMUNI1 ZMUNI7_PCT 3768.9209   
    QMUNI1 ZMUNI8_PCT 3096.0083   
    QMUNI1 ZMUNI9_PCT 1415.2527   
    QMUNI2 OBJROW 1.          
    QMUNI2 ZMUNI1_PCT 3436.2793   
    QMUNI2 ZMUNI2_PCT 36437.4161  
    QMUNI2 ZMUNI3_PCT 3443.5272   
    QMUNI2 ZMUNI4_PCT 4945.3735   
    QMUNI2 ZMUNI5_PCT 525.856     
    QMUNI2 ZMUNI6_PCT 543.9758    
    QMUNI2 ZMUNI7_PCT 2423.4772   
    QMUNI2 ZMUNI8_PCT 2735.5194   
    QMUNI2 ZMUNI9_PCT 2067.9474   
    QMUNI3 OBJROW 1.          
    QMUNI3 ZMUNI1_PCT 7324.2187   
    QMUNI3 ZMUNI2_PCT 2888.8702   
    QMUNI3 ZMUNI3_PCT 39678.9551  
    QMUNI3 ZMUNI4_PCT 8755.1117   
    QMUNI3 ZMUNI5_PCT 416.1835    
    QMUNI3 ZMUNI6_PCT 531.7688    
    QMUNI3 ZMUNI7_PCT 3201.6754   
    QMUNI3 ZMUNI8_PCT 3035.3546   
    QMUNI3 ZMUNI9_PCT 1622.0093   
    QMUNI4 OBJROW 1.          
    QMUNI4 ZMUNI1_PCT 6145.0958   
    QMUNI4 ZMUNI2_PCT 3358.078    
    QMUNI4 ZMUNI3_PCT 7021.3318   
    QMUNI4 ZMUNI4_PCT 187705.6122 
    QMUNI4 ZMUNI5_PCT 742.5308    
    QMUNI4 ZMUNI6_PCT 806.8085    
    QMUNI4 ZMUNI7_PCT 3042.984    
    QMUNI4 ZMUNI8_PCT 2903.3661   
    QMUNI4 ZMUNI9_PCT 1733.0169   
    QMUNI5 OBJROW 1.          
    QMUNI5 ZMUNI1_PCT 953.2928    
    QMUNI5 ZMUNI2_PCT 387.5733    
    QMUNI5 ZMUNI3_PCT 597.3816    
    QMUNI5 ZMUNI4_PCT 680.1605    
    QMUNI5 ZMUNI5_PCT 41658.02    
    QMUNI5 ZMUNI6_PCT 3448.4863   
    QMUNI5 ZMUNI7_PCT 1549.1486   
    QMUNI5 ZMUNI8_PCT 1225.6622   
    QMUNI5 ZMUNI9_PCT 855.6366    
    QMUNI6 OBJROW 1.          
    QMUNI6 ZMUNI1_PCT 653.4576    
    QMUNI6 ZMUNI2_PCT 266.6473    
    QMUNI6 ZMUNI3_PCT 390.2435    
    QMUNI6 ZMUNI4_PCT 406.6467    
    QMUNI6 ZMUNI5_PCT 3334.0454   
    QMUNI6 ZMUNI6_PCT 35651.0163  
    QMUNI6 ZMUNI7_PCT 1190.1856   
    QMUNI6 ZMUNI8_PCT 872.8027    
    QMUNI6 ZMUNI9_PCT 652.3132    
    QMUNI7 OBJROW 1.          
    QMUNI7 ZMUNI1_PCT 2099.6094   
    QMUNI7 ZMUNI2_PCT 603.6759    
    QMUNI7 ZMUNI3_PCT 1271.4386   
    QMUNI7 ZMUNI4_PCT 1261.5204   
    QMUNI7 ZMUNI5_PCT 207.1381    
    QMUNI7 ZMUNI6_PCT 415.802     
    QMUNI7 ZMUNI7_PCT 52720.6421  
    QMUNI7 ZMUNI8_PCT 3640.7471   
    QMUNI7 ZMUNI9_PCT 447.8454    
    QMUNI8 OBJROW 1.          
    QMUNI8 ZMUNI1_PCT 2119.8273   
    QMUNI8 ZMUNI2_PCT 1009.5596   
    QMUNI8 ZMUNI3_PCT 1505.2795   
    QMUNI8 ZMUNI4_PCT 1615.9057   
    QMUNI8 ZMUNI5_PCT 521.2784    
    QMUNI8 ZMUNI6_PCT 556.5643    
    QMUNI8 ZMUNI7_PCT 4423.523    
    QMUNI8 ZMUNI8_PCT 49635.315   
    QMUNI8 ZMUNI9_PCT 1768.1122   
    QMUNI9 OBJROW 1.          
    QMUNI9 ZMUNI1_PCT 962.8296    
    QMUNI9 ZMUNI2_PCT 852.7756    
    QMUNI9 ZMUNI3_PCT 788.4979    
    QMUNI9 ZMUNI4_PCT 927.7343    
    QMUNI9 ZMUNI5_PCT 518.0359    
    QMUNI9 ZMUNI6_PCT 456.81      
    QMUNI9 ZMUNI7_PCT 1469.8029   
    QMUNI9 ZMUNI8_PCT 2227.4017   
    QMUNI9 ZMUNI9_PCT 37589.2639  
RHS
    RHS ZMUNI1_PCT 15.051556331
    RHS ZMUNI2_PCT 0.0483655454
    RHS ZMUNI3_PCT 10.089781091
    RHS ZMUNI4_PCT 22.183313613
    RHS ZMUNI5_PCT  -1.14202658
    RHS ZMUNI6_PCT  -0.86802852
    RHS ZMUNI7_PCT  -5.27770423
    RHS ZMUNI8_PCT  -1.4077937 
    RHS ZMUNI9_PCT  -1.39499332
BOUNDS
 LO BOUND QMUNI1 0.0         
 UP BOUND QMUNI1      1.1e+10
 LO BOUND QMUNI2 -0.000480949
 UP BOUND QMUNI2      1.1e+10
 LO BOUND QMUNI3 -0.000176085
 UP BOUND QMUNI3      1.1e+10
 LO BOUND QMUNI4 -7.54577e-20
 UP BOUND QMUNI4      1.1e+10
 LO BOUND QMUNI5 -0.000215208
 UP BOUND QMUNI5      1.1e+10
 LO BOUND QMUNI6 -0.000397447
 UP BOUND QMUNI6      1.1e+10
 LO BOUND QMUNI7 0.0         
 UP BOUND QMUNI7      1.1e+10
 LO BOUND QMUNI8 0.0         
 UP BOUND QMUNI8      1.1e+10
 LO BOUND QMUNI9  -7.80992e-5
 UP BOUND QMUNI9      1.1e+10
ENDATA
